1000
[203,206,208,223,246,256,259,279,282,319,326,328,339,359,363,371,392,401,413,419,429,433,438,442,453,474,492,501,517,525,526,530,537,539,558,560,603,618,623,624,627,630,633,634,639,644,646,680]
[1,2,1,1,1,1,1,1,1,1,1,1,1,1,1,1,1,1,1,1,1,1,1,1,1,1,2,1,1,1,1,1,1,1,1,1,1,1,1,1,1,1,1,1,1,1,1,1]
